branch-and-cut/resultados/B/b09.sol
# Objective value = 220
e[0,16] 0
e[16,0] 0
e[1,38] 0
e[38,1] 0
e[1,49] 0
e[49,1] 0
e[1,51] 0
e[51,1] 0
e[1,74] 1
e[74,1] 1
e[4,21] 0
e[21,4] 0
e[4,50] 1
e[50,4] 1
e[6,29] 1
e[29,6] 1
e[6,54] 0
e[54,6] 0
e[6,61] 1
e[61,6] 1
e[6,71] 1
e[71,6] 1
e[7,32] 1
e[32,7] 1
e[8,25] 1
e[25,8] 1
e[8,44] 1
e[44,8] 1
e[8,53] 1
e[53,8] 1
e[9,27] 1
e[27,9] 1
e[9,31] 1
e[31,9] 1
e[9,73] 0
e[73,9] 0
e[11,30] 0
e[30,11] 0
e[12,4] 1
e[4,12] 1
e[13,6] 0
e[6,13] 0
e[13,23] 1
e[23,13] 1
e[13,37] 1
e[37,13] 1
e[13,70] 1
e[70,13] 1
e[13,72] 1
e[72,13] 1
e[14,8] 0
e[8,14] 0
e[15,36] 0
e[36,15] 0
e[17,49] 0
e[49,17] 0
e[19,68] 1
e[68,19] 1
e[22,65] 0
e[65,22] 0
e[23,48] 1
e[48,23] 1
e[25,15] 0
e[15,25] 0
e[25,41] 1
e[41,25] 1
e[27,11] 0
e[11,27] 0
e[27,46] 0
e[46,27] 0
e[28,49] 1
e[49,28] 1
e[28,62] 1
e[62,28] 1
e[30,68] 0
e[68,30] 0
e[31,24] 0
e[24,31] 0
e[31,30] 1
e[30,31] 1
e[31,69] 1
e[69,31] 1
e[32,10] 1
e[10,32] 1
e[33,36] 0
e[36,33] 0
e[34,23] 0
e[23,34] 0
e[36,38] 0
e[38,36] 0
e[37,61] 1
e[61,37] 1
e[39,34] 0
e[34,39] 0
e[40,26] 0
e[26,40] 0
e[41,30] 1
e[30,41] 1
e[41,33] 1
e[33,41] 1
e[41,56] 1
e[56,41] 1
e[43,42] 0
e[42,43] 0
e[43,59] 0
e[59,43] 0
e[44,22] 0
e[22,44] 0
e[44,26] 0
e[26,44] 0
e[44,45] 0
e[45,44] 0
e[44,67] 0
e[67,44] 0
e[45,28] 1
e[28,45] 1
e[47,39] 1
e[39,47] 1
e[47,58] 1
e[58,47] 1
e[48,0] 0
e[0,48] 0
e[50,35] 1
e[35,50] 1
e[50,43] 0
e[43,50] 0
e[51,5] 0
e[5,51] 0
e[53,18] 0
e[18,53] 0
e[53,62] 1
e[62,53] 1
e[53,64] 1
e[64,53] 1
e[54,20] 1
e[20,54] 1
e[54,57] 1
e[57,54] 1
e[56,52] 1
e[52,56] 1
e[57,72] 1
e[72,57] 1
e[60,62] 0
e[62,60] 0
e[61,36] 0
e[36,61] 0
e[63,2] 0
e[2,63] 0
e[64,3] 1
e[3,64] 1
e[64,12] 1
e[12,64] 1
e[64,13] 0
e[13,64] 0
e[65,6] 0
e[6,65] 0
e[66,17] 0
e[17,66] 0
e[66,32] 0
e[32,66] 0
e[66,47] 1
e[47,66] 1
e[66,55] 0
e[55,66] 0
e[67,7] 1
e[7,67] 1
e[67,33] 0
e[33,67] 0
e[67,40] 1
e[40,67] 1
e[67,53] 1
e[53,67] 1
e[68,60] 0
e[60,68] 0
e[70,1] 1
e[1,70] 1
e[70,18] 0
e[18,70] 0
e[72,9] 1
e[9,72] 1
e[72,19] 1
e[19,72] 1
e[72,66] 1
e[66,72] 1
e[73,28] 1
e[28,73] 1
e[74,63] 1
e[63,74] 1
