branch-and-cut/resultados/B/b09.log

Gurobi 10.0.3 (win64) logging started Sun Dec 17 19:58:51 2023

Set parameter LogFile to value "./resultados/log.log"
Set parameter TimeLimit to value 600
Gurobi Optimizer version 10.0.3 build v10.0.3rc0 (win64)

CPU model: AMD Ryzen 5 5600 6-Core Processor, instruction set [SSE2|AVX|AVX2]
Thread count: 6 physical cores, 12 logical processors, using up to 12 threads

Academic license 2433534 - for non-commercial use only - registered to gm___@gmail.com
Optimize a model with 301 rows, 188 columns and 8408 nonzeros
Model fingerprint: 0x1ef5622a
Variable types: 0 continuous, 188 integer (188 binary)
Coefficient statistics:
  Matrix range     [1e+00, 4e+01]
  Objective range  [5e-01, 5e+00]
  Bounds range     [1e+00, 1e+00]
  RHS range        [1e+00, 1e+00]
Found heuristic solution: objective 491.0000000
Presolve removed 275 rows and 103 columns
Presolve time: 0.00s
Presolved: 26 rows, 85 columns, 86 nonzeros
Variable types: 0 continuous, 85 integer (85 binary)
Root relaxation presolved: 34 rows, 84 columns, 118 nonzeros


Root relaxation: objective 1.280000e+02, 30 iterations, 0.00 seconds (0.00 work units)

    Nodes    |    Current Node    |     Objective Bounds      |     Work
 Expl Unexpl |  Obj  Depth IntInf | Incumbent    BestBd   Gap | It/Node Time

     0     0  128.00000    0   12  491.00000  128.00000  73.9%     -    0s
H    0     0                     396.0000000  128.00000  67.7%     -    0s
     0     0  176.00000    0    -  396.00000  176.00000  55.6%     -    0s
H    0     0                     253.0000000  188.50000  25.5%     -    0s
     0     0  188.50000    0    4  253.00000  188.50000  25.5%     -    0s
     0     0  193.00000    0    -  253.00000  193.00000  23.7%     -    0s
H    0     0                     245.0000000  194.00000  20.8%     -    0s
     0     0  194.00000    0    9  245.00000  194.00000  20.8%     -    0s
H    0     0                     240.0000000  194.00000  19.2%     -    0s
H    0     0                     232.0000000  201.33333  13.2%     -    0s
     0     0  201.33333    0    4  232.00000  201.33333  13.2%     -    0s
     0     0  205.00000    0    -  232.00000  205.00000  11.6%     -    0s
     0     0  205.00000    0    8  232.00000  205.00000  11.6%     -    0s
     0     0  205.00000    0    -  232.00000  205.00000  11.6%     -    0s
H    0     0                     228.0000000  205.25000  10.0%     -    0s
     0     0  205.25000    0   10  228.00000  205.25000  10.0%     -    0s
H    0     0                     223.0000000  208.00000  6.73%     -    1s
     0     0  208.00000    0    9  223.00000  208.00000  6.73%     -    1s
     0     2  208.83333    0    9  223.00000  208.83333  6.35%     -    1s
H    3     6                     222.0000000  211.00000  4.95%   8.7    1s
H   25    26                     220.0000000  215.50000  2.05%  18.8    1s
   221    89  218.04545   12   15  220.00000  218.04545  0.89%  10.9    5s

Cutting planes:
  User: 38
  Gomory: 3
  Flow cover: 2
  Lazy constraints: 610

Explored 409 nodes (4140 simplex iterations) in 6.45 seconds (0.16 work units)
Thread count was 12 (of 12 available processors)

Solution count 10: 220 222 223 ... 491

Optimal solution found (tolerance 1.00e-04)
Best objective 2.200000000000e+02, best bound 2.200000000000e+02, gap 0.0000%

User-callback calls 1161, time in user-callback 6.21 sec
